
Gurobi 10.0.3 (linux64, gurobi_cl) logging started Thu Nov  9 11:47:56 2023

Set parameter Username
Set parameter TimeLimit to value 3600
Set parameter LogFile to value "RCPSP_1134.log"
Set parameter Threads to value 32
Academic license - for non-commercial use only - expires 2024-11-06
Using license file /home/jrivera6/gurobi-licenses/v1003/compute-0-36/gurobi.lic

Gurobi Optimizer version 10.0.3 build v10.0.3rc0 (linux64)
Copyright (c) 2023, Gurobi Optimization, LLC

Read MPS format model from file RCPSP_1134.mps
Reading time = 0.07 seconds
RCPSP_1134: 42947 rows, 17020 columns, 134581 nonzeros

CPU model: Intel(R) Xeon(R) Gold 6130 CPU @ 2.10GHz, instruction set [SSE2|AVX|AVX2|AVX512]
Thread count: 32 physical cores, 32 logical processors, using up to 32 threads

Optimize a model with 42947 rows, 17020 columns and 134581 nonzeros
Model fingerprint: 0x923b6d65
Variable types: 92 continuous, 16928 integer (16928 binary)
Coefficient statistics:
  Matrix range     [1e+00, 5e+02]
  Objective range  [1e+00, 1e+00]
  Bounds range     [1e+00, 1e+00]
  RHS range        [1e+00, 5e+02]
Presolve removed 7095 rows and 1228 columns (presolve time = 5s) ...
Presolve removed 9027 rows and 2415 columns
Presolve time: 6.18s
Presolved: 33920 rows, 14605 columns, 109897 nonzeros
Variable types: 91 continuous, 14514 integer (14514 binary)

Deterministic concurrent LP optimizer: primal and dual simplex (primal and dual model)
Showing first log only...

Root relaxation presolved: 33920 rows, 14605 columns, 109897 nonzeros


Root simplex log...

Iteration    Objective       Primal Inf.    Dual Inf.      Time
       0    9.8701508e+01   4.834278e-02   1.839170e+08      7s
    2241    9.8000000e+01   0.000000e+00   0.000000e+00      8s
Concurrent spin time: 0.69s

Solved with dual simplex (dual model)

Root relaxation: objective 9.800000e+01, 15738 iterations, 2.03 seconds (0.12 work units)
Total elapsed time = 10.94s

    Nodes    |    Current Node    |     Objective Bounds      |     Work
 Expl Unexpl |  Obj  Depth IntInf | Incumbent    BestBd   Gap | It/Node Time

H    0     0                      98.0000000   98.00000  0.00%     -   11s
     0     0   98.00000    0   14   98.00000   98.00000  0.00%     -   11s

Explored 1 nodes (19307 simplex iterations) in 11.14 seconds (3.60 work units)
Thread count was 32 (of 32 available processors)

Solution count 1: 98 

Optimal solution found (tolerance 1.00e-04)
Best objective 9.800000000000e+01, best bound 9.800000000000e+01, gap 0.0000%

Wrote result file 'RCPSP_1134.sol'

